\ Model knapsack_40_10_1
\ LP format - for model browsing. Use MPS format to capture full model detail.
\ Signature: 0xffbf8f2771c88059
Minimize
  - 373 y[0] - 134 y[1] - 1030 y[2] - 146 y[3] - 1064 y[4] - 216 y[5]
   - 509 y[6] - 912 y[7] - 314 y[8] - 1009 y[9] - 651 y[10] - 933 y[11]
   - 715 y[12] - 657 y[13] - 173 y[14] - 967 y[15] - 931 y[16] - 766 y[17]
   - 212 y[18] - 334 y[19] - 705 y[20] - 175 y[21] - 981 y[22] - 239 y[23]
   - 642 y[24] - 979 y[25] - 390 y[26] - 110 y[27] - 962 y[28] - 1095 y[29]
   - 206 y[30] - 840 y[31] - 267 y[32] - 702 y[33] - 194 y[34] - 366 y[35]
   - 1095 y[36] - 762 y[37] - 160 y[38] - 301 y[39]
Subject To
 primal_upper: 273 y[0] + 34 y[1] + 930 y[2] + 46 y[3] + 964 y[4]
   + 116 y[5] + 409 y[6] + 812 y[7] + 214 y[8] + 909 y[9] + 551 y[10]
   + 833 y[11] + 615 y[12] + 557 y[13] + 73 y[14] + 867 y[15] + 831 y[16]
   + 666 y[17] + 112 y[18] + 234 y[19] + 605 y[20] + 75 y[21] + 881 y[22]
   + 139 y[23] + 542 y[24] + 879 y[25] + 290 y[26] + 10 y[27] + 862 y[28]
   + 995 y[29] + 106 y[30] + 740 y[31] + 167 y[32] + 602 y[33] + 94 y[34]
   + 266 y[35] + 995 y[36] + 662 y[37] + 60 y[38] + 201 y[39] + 27 z[0]
   + 3 z[1] + 93 z[2] + 5 z[3] + 96 z[4] + 12 z[5] + 41 z[6] + 81 z[7]
   + 21 z[8] + 91 z[9] + 55 z[10] + 83 z[11] + 62 z[12] + 56 z[13]
   + 7 z[14] + 87 z[15] + 83 z[16] + 67 z[17] + 11 z[18] + 23 z[19]
   + 60 z[20] + 8 z[21] + 88 z[22] + 14 z[23] + 54 z[24] + 88 z[25]
   + 29 z[26] + z[27] + 86 z[28] + 100 z[29] + 11 z[30] + 74 z[31]
   + 17 z[32] + 60 z[33] + 9 z[34] + 27 z[35] + 100 z[36] + 66 z[37]
   + 6 z[38] + 20 z[39] <= 9608
 primal_lower0: - 6 y[0] - 16 y[1] - 16 y[2] - 19 y[3] - 20 y[4] - 8 y[5]
   - 9 y[6] - 18 y[7] - 6 y[8] - 7 y[9] - 14 y[10] - y[11] - 9 y[12]
   - 20 y[13] - 12 y[14] - 3 y[15] - 10 y[16] - 20 y[17] - 8 y[18]
   - 22 y[19] - 4 y[20] - 5 y[22] - 17 y[23] - 6 y[24] - 13 y[25]
   - 15 y[26] - 5 y[27] - 18 y[28] - 8 y[29] - 7 y[30] - 7 y[31] - 23 y[32]
   - 2 y[33] - 8 y[34] - 24 y[35] - 24 y[36] - 4 y[37] - 3 y[38] - 17 y[39]
   + 398 u[0] + 75 u[1] + 103 u[2] + 983 u[3] + 977 u[4] + 789 u[5]
   + 854 u[6] + 949 u[7] + 3 u[8] + 150 u[9] + 956 u[10] + 690 u[11]
   + 836 u[12] + 54 u[13] + 174 u[14] + 68 u[15] + 980 u[16] + 363 u[17]
   + 917 u[18] + 971 u[19] + 98 u[20] + 452 u[21] + 862 u[22] + 196 u[23]
   + 947 u[24] + 808 u[25] + 727 u[26] + 859 u[27] + 883 u[28] + 204 u[29]
   + 575 u[30] + 629 u[31] + 324 u[32] + 355 u[33] + 891 u[34] + 363 u[35]
   + 384 u[36] + 687 u[37] + 649 u[38] + 610 u[39] <= 983
 primal_lower1: - 15 y[0] - 14 y[1] - 12 y[2] - 24 y[3] - 17 y[4] - 21 y[5]
   - 13 y[6] - 18 y[7] - 14 y[8] - 4 y[9] - 20 y[10] - 8 y[11] - 13 y[12]
   - y[13] - 7 y[14] - 11 y[15] - 9 y[16] - 11 y[17] - 3 y[18] - 5 y[19]
   - 21 y[20] - 15 y[21] - 19 y[22] - 13 y[23] - 20 y[24] - 8 y[26]
   - 13 y[28] - 4 y[29] - 2 y[30] - 19 y[31] - 3 y[32] - 20 y[33]
   - 21 y[34] - 12 y[35] - 19 y[36] - 12 y[37] - 5 y[39] + 49 u[0]
   + 178 u[1] + 298 u[2] + 630 u[3] + 468 u[4] + 164 u[5] + 377 u[6]
   + 716 u[7] + 422 u[8] + 749 u[9] + 927 u[10] + 849 u[11] + 175 u[12]
   + 813 u[13] + u[14] + 395 u[15] + 231 u[16] + 834 u[17] + 840 u[18]
   + 866 u[19] + 405 u[20] + 331 u[21] + 113 u[22] + 107 u[23] + 638 u[24]
   + 727 u[25] + 482 u[26] + 506 u[27] + 334 u[28] + 955 u[29] + 962 u[30]
   + 636 u[31] + 391 u[32] + 778 u[33] + 646 u[34] + 402 u[35] + 875 u[36]
   + 574 u[37] + 84 u[38] + 73 u[39] <= 962
 primal_lower2: - 12 y[0] - 3 y[1] - 13 y[2] - 23 y[3] - 12 y[4] - 6 y[6]
   - 24 y[7] - 2 y[8] - 15 y[9] - 15 y[10] - 15 y[11] - 22 y[12] - 6 y[13]
   - 13 y[14] - 20 y[15] - 18 y[16] - y[17] - 15 y[18] - 2 y[19] - 10 y[20]
   - 10 y[21] - 8 y[22] - 18 y[23] - 20 y[24] - 18 y[25] - 10 y[26]
   - 16 y[27] - 13 y[28] - y[29] - 11 y[30] - 16 y[31] - 18 y[32] - 3 y[33]
   - 20 y[34] - 10 y[35] - 15 y[36] - 6 y[37] - 9 y[38] - 2 y[39] + 52 u[0]
   + 841 u[1] + 493 u[2] + 157 u[3] + 871 u[4] + 83 u[5] + 828 u[6]
   + 827 u[7] + 793 u[8] + 500 u[9] + 938 u[10] + 856 u[11] + 562 u[12]
   + 84 u[13] + 844 u[14] + 122 u[15] + 986 u[16] + 449 u[17] + 451 u[18]
   + 185 u[19] + 552 u[20] + 954 u[21] + 692 u[22] + 554 u[23] + 689 u[24]
   + 654 u[25] + 749 u[26] + 657 u[27] + 249 u[28] + 978 u[29] + 69 u[30]
   + 899 u[31] + 746 u[32] + 369 u[33] + 497 u[34] + 457 u[35] + 782 u[36]
   + 661 u[37] + 215 u[38] + 992 u[39] <= 992
 primal_lower3: - 21 y[0] - 14 y[1] - 22 y[2] - 3 y[3] - 9 y[4] - 21 y[5]
   - 7 y[6] - 10 y[7] - 13 y[8] - 19 y[9] - 12 y[10] - 22 y[11] - 4 y[12]
   - 3 y[13] - 4 y[14] - 3 y[15] - 8 y[16] - 19 y[17] - 14 y[18] - 2 y[19]
   - 14 y[20] - 23 y[21] - 17 y[22] - 11 y[23] - 5 y[24] - 15 y[25] - y[26]
   - 17 y[27] - 16 y[28] - 15 y[29] - 9 y[30] - 20 y[31] - 9 y[32]
   - 3 y[33] - 12 y[34] - 16 y[35] - 20 y[36] - 3 y[38] - 4 y[39] + 54 u[0]
   + 75 u[1] + 903 u[2] + 751 u[3] + 529 u[4] + 205 u[5] + 606 u[6]
   + 181 u[7] + 547 u[8] + 654 u[9] + 708 u[10] + 362 u[11] + 868 u[12]
   + 590 u[13] + 614 u[14] + 780 u[15] + 556 u[16] + 19 u[17] + 109 u[18]
   + 371 u[19] + 618 u[20] + 756 u[21] + 494 u[22] + 516 u[23] + 371 u[24]
   + 480 u[25] + 95 u[26] + 43 u[27] + 819 u[28] + 212 u[29] + 255 u[30]
   + 437 u[31] + 332 u[32] + 931 u[33] + 443 u[34] + 835 u[35] + 904 u[36]
   + 527 u[37] + 273 u[38] + 834 u[39] <= 931
 primal_lower4: - 21 y[0] - 19 y[1] - 7 y[2] - 6 y[3] - 17 y[4] - 7 y[5]
   - 17 y[6] - 20 y[7] - 19 y[8] - 12 y[9] - 7 y[10] - 16 y[12] - 17 y[14]
   - 16 y[15] - 15 y[16] - 23 y[17] - 22 y[18] - 12 y[19] - 6 y[20]
   - 9 y[21] - 3 y[22] - 4 y[23] - 22 y[24] - y[25] - 8 y[26] - 15 y[27]
   - 7 y[28] - 17 y[29] - 18 y[30] - 12 y[31] - 10 y[32] - 10 y[33]
   - 14 y[34] - 7 y[35] - 21 y[36] - 13 y[37] - 5 y[38] - 18 y[39]
   + 217 u[0] + 795 u[1] + 85 u[2] + 220 u[3] + 275 u[4] + 229 u[5]
   + 44 u[6] + 561 u[7] + 285 u[8] + 127 u[9] + 699 u[10] + 870 u[11]
   + 158 u[12] + 159 u[13] + 885 u[14] + 537 u[15] + 270 u[16] + 780 u[17]
   + 667 u[18] + 208 u[19] + 781 u[20] + 36 u[21] + 892 u[22] + 232 u[23]
   + 325 u[24] + 968 u[25] + 301 u[26] + 479 u[27] + 358 u[28] + 364 u[29]
   + 806 u[30] + 761 u[31] + 142 u[32] + 883 u[33] + 337 u[34] + 519 u[35]
   + 410 u[36] + 88 u[37] + 359 u[38] + 847 u[39] <= 968
 primal_lower5: - 11 y[1] - 20 y[2] - 14 y[3] - 16 y[4] - 22 y[5] - 3 y[6]
   - 19 y[7] - 3 y[8] - 4 y[9] - 16 y[11] - 11 y[12] - 22 y[13] - 9 y[14]
   - 12 y[15] - y[16] - 15 y[17] - 18 y[18] - 21 y[19] - 3 y[20] - 4 y[21]
   - 17 y[22] - 14 y[23] - 6 y[24] - 15 y[25] - 13 y[26] - 10 y[27]
   - 16 y[29] - 10 y[30] - 2 y[31] - 21 y[32] - 14 y[33] - 8 y[34]
   - 12 y[35] - 18 y[36] - 8 y[37] - 12 y[38] - 17 y[39] + 911 u[0]
   + 345 u[1] + 219 u[2] + 162 u[3] + 609 u[4] + 643 u[5] + 178 u[6]
   + 199 u[7] + 435 u[8] + 541 u[9] + 809 u[10] + 620 u[11] + 452 u[12]
   + 805 u[13] + 667 u[14] + 63 u[15] + 812 u[16] + 586 u[17] + 265 u[18]
   + 254 u[19] + 683 u[20] + 538 u[21] + 650 u[22] + 62 u[23] + 579 u[24]
   + 582 u[25] + 355 u[26] + 781 u[27] + 12 u[28] + 90 u[29] + 732 u[30]
   + 391 u[31] + 412 u[32] + 377 u[33] + 327 u[34] + 533 u[35] + 840 u[36]
   + 414 u[37] + 277 u[38] + 893 u[39] <= 911
 primal_lower6: - 8 y[0] - 11 y[1] - 14 y[2] - 12 y[3] - 22 y[4] - 6 y[5]
   - 22 y[6] - 4 y[7] - 22 y[8] - 2 y[9] - 15 y[10] - 4 y[11] - 8 y[12]
   - 17 y[13] - 5 y[14] - 8 y[15] - 7 y[16] - 14 y[17] - 2 y[18] - 13 y[19]
   - 3 y[21] - 16 y[22] - 6 y[23] - 14 y[24] - 18 y[25] - 6 y[26]
   - 22 y[27] - 21 y[28] - 6 y[29] - 17 y[30] - 6 y[31] - 20 y[32]
   - 10 y[33] - 6 y[34] - 19 y[35] - 8 y[36] - 13 y[37] - 10 y[38]
   - 13 y[39] + 260 u[0] + 474 u[1] + 888 u[2] + 131 u[3] + 542 u[4]
   + 204 u[5] + 807 u[6] + 992 u[7] + 384 u[8] + 286 u[9] + 94 u[10]
   + 797 u[11] + 209 u[12] + 878 u[13] + 96 u[14] + 944 u[15] + 849 u[16]
   + 419 u[17] + 918 u[18] + 455 u[19] + 768 u[20] + 219 u[21] + 215 u[22]
   + 631 u[23] + 920 u[24] + 391 u[25] + 320 u[26] + 742 u[27] + 961 u[28]
   + 67 u[29] + 905 u[30] + 856 u[31] + 985 u[32] + 26 u[33] + 860 u[34]
   + 950 u[35] + 517 u[36] + 695 u[37] + 954 u[38] + 150 u[39] <= 992
 primal_lower7: - 2 y[0] - 14 y[1] - 2 y[2] - 21 y[3] - 8 y[4] - 13 y[5]
   - 6 y[6] - 18 y[7] - 19 y[8] - 18 y[9] - 20 y[10] - 16 y[11] - 11 y[12]
   - 15 y[13] - 22 y[15] - 4 y[16] - 15 y[17] - 16 y[18] - 7 y[19]
   - 15 y[20] - 14 y[21] - 3 y[22] - 24 y[23] - 6 y[24] - 6 y[25] - 2 y[26]
   - 22 y[27] - 11 y[28] - 15 y[29] - 20 y[30] - 17 y[31] - 19 y[32]
   - 8 y[33] - 3 y[34] - 13 y[35] - 5 y[36] - 11 y[37] - y[38] - 16 y[39]
   + 709 u[0] + 886 u[1] + 134 u[2] + 282 u[3] + 592 u[4] + 232 u[5]
   + 789 u[6] + 184 u[7] + 322 u[8] + 137 u[9] + 995 u[10] + 557 u[11]
   + 963 u[12] + 25 u[13] + 997 u[14] + 919 u[15] + 227 u[16] + 646 u[17]
   + 172 u[18] + 814 u[19] + 353 u[20] + 831 u[21] + 109 u[22] + 839 u[23]
   + 514 u[24] + 155 u[25] + 758 u[26] + 406 u[27] + 546 u[28] + 79 u[29]
   + 38 u[30] + 904 u[31] + 971 u[32] + 854 u[33] + 858 u[34] + 678 u[35]
   + 63 u[36] + 890 u[37] + 24 u[38] + 629 u[39] <= 997
 primal_lower8: - 7 y[0] - 5 y[1] - 4 y[2] - 4 y[3] - 15 y[4] - 24 y[5]
   - 23 y[6] - 12 y[7] - 15 y[8] - 22 y[9] - 13 y[10] - 19 y[11] - 5 y[12]
   - 22 y[13] - 21 y[14] - 4 y[15] - 17 y[16] - 19 y[17] - 6 y[18]
   - 3 y[19] - 10 y[20] - 17 y[21] - 10 y[22] - 18 y[23] - 20 y[24]
   - 5 y[25] - 11 y[26] - 18 y[27] - 2 y[28] - y[29] - 4 y[30] - 22 y[31]
   - 14 y[32] - 6 y[33] - 19 y[34] - 7 y[35] - 19 y[36] - 14 y[37]
   - 18 y[38] - 23 y[39] + 119 u[0] + 169 u[1] + 387 u[2] + 978 u[3]
   + 281 u[4] + 147 u[5] + 834 u[6] + 23 u[7] + 243 u[8] + 229 u[9]
   + 945 u[10] + 28 u[11] + 876 u[12] + 397 u[13] + 163 u[14] + 31 u[15]
   + 532 u[16] + 866 u[17] + 945 u[18] + 534 u[19] + 51 u[20] + 898 u[21]
   + 506 u[22] + 638 u[23] + 299 u[24] + 550 u[25] + 443 u[26] + 453 u[27]
   + 60 u[28] + 674 u[29] + 28 u[30] + 695 u[31] + 84 u[32] + 657 u[33]
   + 631 u[34] + 381 u[35] + 232 u[36] + 502 u[37] + 845 u[38] + 557 u[39]
   <= 978
 primal_lower9: - 3 y[0] - 6 y[1] - 23 y[2] - 4 y[3] - 15 y[4] - 8 y[5]
   - 19 y[6] - 2 y[7] - 2 y[8] - 24 y[9] - 12 y[11] - 14 y[12] - 6 y[14]
   - 17 y[15] - 3 y[16] - 7 y[17] - 8 y[18] - 3 y[19] - 2 y[20] - 8 y[21]
   - 5 y[22] - 15 y[23] - 12 y[24] - 10 y[25] - 6 y[26] - 2 y[27] - 3 y[28]
   - 11 y[29] - 17 y[30] - 3 y[31] - 12 y[32] - 16 y[33] - 21 y[34]
   - 23 y[35] - 21 y[36] - 6 y[37] - 9 y[38] - 17 y[39] + 301 u[0]
   + 15 u[1] + 601 u[2] + 584 u[3] + 959 u[4] + 817 u[5] + 560 u[6]
   + 213 u[7] + 129 u[8] + 3 u[9] + 455 u[10] + 722 u[11] + 530 u[12]
   + 795 u[13] + 585 u[14] + 981 u[15] + 706 u[16] + 232 u[17] + 15 u[18]
   + 516 u[19] + 769 u[20] + 960 u[21] + 40 u[22] + 332 u[23] + 537 u[24]
   + 460 u[25] + 201 u[26] + 571 u[27] + 202 u[28] + 480 u[29] + 18 u[30]
   + 493 u[31] + 994 u[32] + 455 u[33] + 517 u[34] + 899 u[35] + 182 u[36]
   + 268 u[37] + 643 u[38] + 851 u[39] <= 994
 mccormick1[0]: - u[0] + z[0] <= 0
 mccormick1[1]: - u[1] + z[1] <= 0
 mccormick1[2]: - u[2] + z[2] <= 0
 mccormick1[3]: - u[3] + z[3] <= 0
 mccormick1[4]: - u[4] + z[4] <= 0
 mccormick1[5]: - u[5] + z[5] <= 0
 mccormick1[6]: - u[6] + z[6] <= 0
 mccormick1[7]: - u[7] + z[7] <= 0
 mccormick1[8]: - u[8] + z[8] <= 0
 mccormick1[9]: - u[9] + z[9] <= 0
 mccormick1[10]: - u[10] + z[10] <= 0
 mccormick1[11]: - u[11] + z[11] <= 0
 mccormick1[12]: - u[12] + z[12] <= 0
 mccormick1[13]: - u[13] + z[13] <= 0
 mccormick1[14]: - u[14] + z[14] <= 0
 mccormick1[15]: - u[15] + z[15] <= 0
 mccormick1[16]: - u[16] + z[16] <= 0
 mccormick1[17]: - u[17] + z[17] <= 0
 mccormick1[18]: - u[18] + z[18] <= 0
 mccormick1[19]: - u[19] + z[19] <= 0
 mccormick1[20]: - u[20] + z[20] <= 0
 mccormick1[21]: - u[21] + z[21] <= 0
 mccormick1[22]: - u[22] + z[22] <= 0
 mccormick1[23]: - u[23] + z[23] <= 0
 mccormick1[24]: - u[24] + z[24] <= 0
 mccormick1[25]: - u[25] + z[25] <= 0
 mccormick1[26]: - u[26] + z[26] <= 0
 mccormick1[27]: - u[27] + z[27] <= 0
 mccormick1[28]: - u[28] + z[28] <= 0
 mccormick1[29]: - u[29] + z[29] <= 0
 mccormick1[30]: - u[30] + z[30] <= 0
 mccormick1[31]: - u[31] + z[31] <= 0
 mccormick1[32]: - u[32] + z[32] <= 0
 mccormick1[33]: - u[33] + z[33] <= 0
 mccormick1[34]: - u[34] + z[34] <= 0
 mccormick1[35]: - u[35] + z[35] <= 0
 mccormick1[36]: - u[36] + z[36] <= 0
 mccormick1[37]: - u[37] + z[37] <= 0
 mccormick1[38]: - u[38] + z[38] <= 0
 mccormick1[39]: - u[39] + z[39] <= 0
 mccormick2[0]: - y[0] + z[0] <= 0
 mccormick2[1]: - y[1] + z[1] <= 0
 mccormick2[2]: - y[2] + z[2] <= 0
 mccormick2[3]: - y[3] + z[3] <= 0
 mccormick2[4]: - y[4] + z[4] <= 0
 mccormick2[5]: - y[5] + z[5] <= 0
 mccormick2[6]: - y[6] + z[6] <= 0
 mccormick2[7]: - y[7] + z[7] <= 0
 mccormick2[8]: - y[8] + z[8] <= 0
 mccormick2[9]: - y[9] + z[9] <= 0
 mccormick2[10]: - y[10] + z[10] <= 0
 mccormick2[11]: - y[11] + z[11] <= 0
 mccormick2[12]: - y[12] + z[12] <= 0
 mccormick2[13]: - y[13] + z[13] <= 0
 mccormick2[14]: - y[14] + z[14] <= 0
 mccormick2[15]: - y[15] + z[15] <= 0
 mccormick2[16]: - y[16] + z[16] <= 0
 mccormick2[17]: - y[17] + z[17] <= 0
 mccormick2[18]: - y[18] + z[18] <= 0
 mccormick2[19]: - y[19] + z[19] <= 0
 mccormick2[20]: - y[20] + z[20] <= 0
 mccormick2[21]: - y[21] + z[21] <= 0
 mccormick2[22]: - y[22] + z[22] <= 0
 mccormick2[23]: - y[23] + z[23] <= 0
 mccormick2[24]: - y[24] + z[24] <= 0
 mccormick2[25]: - y[25] + z[25] <= 0
 mccormick2[26]: - y[26] + z[26] <= 0
 mccormick2[27]: - y[27] + z[27] <= 0
 mccormick2[28]: - y[28] + z[28] <= 0
 mccormick2[29]: - y[29] + z[29] <= 0
 mccormick2[30]: - y[30] + z[30] <= 0
 mccormick2[31]: - y[31] + z[31] <= 0
 mccormick2[32]: - y[32] + z[32] <= 0
 mccormick2[33]: - y[33] + z[33] <= 0
 mccormick2[34]: - y[34] + z[34] <= 0
 mccormick2[35]: - y[35] + z[35] <= 0
 mccormick2[36]: - y[36] + z[36] <= 0
 mccormick2[37]: - y[37] + z[37] <= 0
 mccormick2[38]: - y[38] + z[38] <= 0
 mccormick2[39]: - y[39] + z[39] <= 0
 mccormick3[0]: y[0] + u[0] - z[0] <= 1
 mccormick3[1]: y[1] + u[1] - z[1] <= 1
 mccormick3[2]: y[2] + u[2] - z[2] <= 1
 mccormick3[3]: y[3] + u[3] - z[3] <= 1
 mccormick3[4]: y[4] + u[4] - z[4] <= 1
 mccormick3[5]: y[5] + u[5] - z[5] <= 1
 mccormick3[6]: y[6] + u[6] - z[6] <= 1
 mccormick3[7]: y[7] + u[7] - z[7] <= 1
 mccormick3[8]: y[8] + u[8] - z[8] <= 1
 mccormick3[9]: y[9] + u[9] - z[9] <= 1
 mccormick3[10]: y[10] + u[10] - z[10] <= 1
 mccormick3[11]: y[11] + u[11] - z[11] <= 1
 mccormick3[12]: y[12] + u[12] - z[12] <= 1
 mccormick3[13]: y[13] + u[13] - z[13] <= 1
 mccormick3[14]: y[14] + u[14] - z[14] <= 1
 mccormick3[15]: y[15] + u[15] - z[15] <= 1
 mccormick3[16]: y[16] + u[16] - z[16] <= 1
 mccormick3[17]: y[17] + u[17] - z[17] <= 1
 mccormick3[18]: y[18] + u[18] - z[18] <= 1
 mccormick3[19]: y[19] + u[19] - z[19] <= 1
 mccormick3[20]: y[20] + u[20] - z[20] <= 1
 mccormick3[21]: y[21] + u[21] - z[21] <= 1
 mccormick3[22]: y[22] + u[22] - z[22] <= 1
 mccormick3[23]: y[23] + u[23] - z[23] <= 1
 mccormick3[24]: y[24] + u[24] - z[24] <= 1
 mccormick3[25]: y[25] + u[25] - z[25] <= 1
 mccormick3[26]: y[26] + u[26] - z[26] <= 1
 mccormick3[27]: y[27] + u[27] - z[27] <= 1
 mccormick3[28]: y[28] + u[28] - z[28] <= 1
 mccormick3[29]: y[29] + u[29] - z[29] <= 1
 mccormick3[30]: y[30] + u[30] - z[30] <= 1
 mccormick3[31]: y[31] + u[31] - z[31] <= 1
 mccormick3[32]: y[32] + u[32] - z[32] <= 1
 mccormick3[33]: y[33] + u[33] - z[33] <= 1
 mccormick3[34]: y[34] + u[34] - z[34] <= 1
 mccormick3[35]: y[35] + u[35] - z[35] <= 1
 mccormick3[36]: y[36] + u[36] - z[36] <= 1
 mccormick3[37]: y[37] + u[37] - z[37] <= 1
 mccormick3[38]: y[38] + u[38] - z[38] <= 1
 mccormick3[39]: y[39] + u[39] - z[39] <= 1
Bounds
Binaries
 y[0] y[1] y[2] y[3] y[4] y[5] y[6] y[7] y[8] y[9] y[10] y[11] y[12] y[13]
 y[14] y[15] y[16] y[17] y[18] y[19] y[20] y[21] y[22] y[23] y[24] y[25]
 y[26] y[27] y[28] y[29] y[30] y[31] y[32] y[33] y[34] y[35] y[36] y[37]
 y[38] y[39] u[0] u[1] u[2] u[3] u[4] u[5] u[6] u[7] u[8] u[9] u[10] u[11]
 u[12] u[13] u[14] u[15] u[16] u[17] u[18] u[19] u[20] u[21] u[22] u[23]
 u[24] u[25] u[26] u[27] u[28] u[29] u[30] u[31] u[32] u[33] u[34] u[35]
 u[36] u[37] u[38] u[39] z[0] z[1] z[2] z[3] z[4] z[5] z[6] z[7] z[8] z[9]
 z[10] z[11] z[12] z[13] z[14] z[15] z[16] z[17] z[18] z[19] z[20] z[21]
 z[22] z[23] z[24] z[25] z[26] z[27] z[28] z[29] z[30] z[31] z[32] z[33]
 z[34] z[35] z[36] z[37] z[38] z[39]
End
